NAME: exemplo14
TYPE: TSP
COMMENT: 14 locations for TSP testing
DIMENSION: 14
EDGE_WEIGHT_TYPE: EUC_2D
NODE_COORD_SECTION
1 10 20
2 25 15
3 30 35
4 15 40
5 5 30
6 35 25
7 40 10
8 20 5
9 45 20
10 50 35
11 40 45
12 30 50
13 25 55
14 15 45
EOF
